(set-info :smt-lib-version 2.6)
(set-logic QF_S)
(set-info :source |
Generated by: Murphy Berzish, Mitja Kulczynski, Federico Mora, Florin Manea, Joel Day, Dirk Nowotka, Vijay Ganesh, Zhengyang Lu
Generated on: 2020-10-01
Description: Translated from a collection of real-world regex queries, AutomataArk, collected by Loris D’Antoni and Fang Wang: https://github.com/lorisdanto/automatark
Application: Evaluate solvers on real-world regex queries
Target solver: Z3str3RE, CVC4, OSTRICH, Z3seq, Z3str3, Z3-Trau
Publications: Berzish, M., Kulczynski, M., Mora, F., Manea, F., Day, J. D., Nowotka, D., & Ganesh, V. (2021, July). An SMT solver for regular expressions and linear arithmetic over string length. In CAV 2021.
|)
(set-info :license "https://creativecommons.org/licenses/by/4.0/")
(set-info :category "industrial")
(set-info :status unsat)

(declare-const X String)
(assert (str.in_re X (re.++ (str.to_re "/pdf.php?pdf=") (re.+ (re.union (re.range "0" "9") (re.range "A" "F"))) (str.to_re "&type=") (re.+ (re.range "0" "9")) (str.to_re "&o=") (re.+ (re.comp (str.to_re "&"))) (str.to_re "&b=/U\u{a}"))))
(assert (str.in_re X (re.++ (str.to_re "/") (re.+ (re.range "0" "9")) (str.to_re "O") (re.+ (re.range "0" "9")) (str.to_re ".jsp?") ((_ re.loop 20 20) (re.union (re.range "a" "z") (re.range "0" "9") (str.to_re "=") (str.to_re "+") (str.to_re "/"))) (str.to_re "/iR\u{a}"))))
(assert (not (str.in_re X (str.to_re "thesearchresltLoggerHost:BetaHWAEHost:is\u{a}"))))
(assert (str.in_re X (re.++ (re.range "0" "4") ((_ re.loop 2 2) (re.range "0" "9")) (re.union (str.to_re " ") (str.to_re "\u{9}") (str.to_re "\u{a}") (str.to_re "\u{c}") (str.to_re "\u{d}")) (str.to_re "BP") (re.union (str.to_re " ") (str.to_re "\u{9}") (str.to_re "\u{a}") (str.to_re "\u{c}") (str.to_re "\u{d}")) ((_ re.loop 3 3) (re.range "0" "9")) (str.to_re "\u{a}"))))
(assert (not (str.in_re X (re.++ (str.to_re "/.addAnnot") (re.* (re.union (str.to_re " ") (str.to_re "\u{9}") (str.to_re "\u{a}") (str.to_re "\u{c}") (str.to_re "\u{d}"))) (str.to_re "(") (re.* (re.comp (str.to_re ")"))) (str.to_re "points") (re.* (re.union (str.to_re " ") (str.to_re "\u{9}") (str.to_re "\u{a}") (str.to_re "\u{c}") (str.to_re "\u{d}"))) (str.to_re ":") (re.* (re.union (str.to_re " ") (str.to_re "\u{9}") (str.to_re "\u{a}") (str.to_re "\u{c}") (str.to_re "\u{d}"))) (str.to_re "0/i\u{a}")))))
(check-sat)

(exit)
